1107063
0	20	6578
20	9	5744
9	10	5506
10	34	5412
34	1	10541
1	26	15288
26	17	12606
17	39	18404
39	18	13572
18	3	26533
3	21	23621
21	23	45980
23	7	135189
7	14	26227
14	15	36816
15	16	43849
16	13	42391
13	2	30026
2	6	152766
6	35	11794
35	28	16895
28	37	745
37	22	7449
22	24	11530
24	38	4093
38	29	6375
29	36	941
36	25	14546
25	32	15458
32	11	3967
11	19	42433
19	31	24202
31	4	3290
4	30	46426
30	27	12751
27	12	6411
12	33	51635
33	5	56284
5	8	47658
8	0	65131
